Test: fpga10_20_uns_rcr.cnf
Options: -no-inverting-opt -activity-nl-freq=1
WARNING: for repeatability, setting FPU to use double precision
============================[ Problem Statistics ]=============================
|                                                                             |
|  Number of symmetries:           57                                         |
|  Number of invertingSyms:         0                                         |
|  Number of variables:           400                                         |
|  Number of clauses:            3840                                         |
|  Parse time:                   0.00 s                                       |
|                                                                             |
============================[ Search Statistics ]==============================
| Conflicts |          ORIGINAL         |          LEARNT          | Progress |
|           |    Vars  Clauses Literals |    Limit  Clauses Lit/Cl |          |
===============================================================================
|       100 |     400     3840     8000 |     1408      142     60 |  0.001 % |
|       250 |     400     3840     8000 |     1548      390     50 |  0.001 % |
|       475 |     400     3840     8000 |     1703      771     47 |  0.001 % |
|       812 |     400     3840     8000 |     1874     1552     43 |  0.001 % |
===============================================================================
restarts              : 8
conflicts             : 1240           (34443 /sec)
symconflicts          : 238            (6611 /sec)
decisions             : 2441           (0.00 % random) (67802 /sec)
propagations          : 45483          (1263346 /sec)
sympropagations       : 1684           (46775 /sec)
conflict literals     : 52126          (7.55 % deleted)
literals     : 52126          (7.55 % deleted)

HEURISTIC USAGES
random                : 0           
activity w/ lookahead : 0           
activity no lookahead : 2441        
original sp           : 0           
sym count             : 0           

Memory used           : 6.00 MB
CPU time              : 0.036002 s

UNSATISFIABLE
